c tw = 6
p tw 24 36
1 2
1 12
1 13
2 14
2 3
11 12
11 23
12 24
13 18
13 20
14 19
14 21
15 20
15 22
16 21
16 23
17 22
17 24
18 23
19 24
3 15
3 4
4 16
4 5
5 17
5 6
6 18
6 7
7 19
7 8
8 20
8 9
9 21
9 10
10 11
10 22
